c FILE /home/rafael/Documents/HappySet/MIHS/inputs/happygen/output/graph_scale_free_k10_p0.4_v50_20241127_082516.txt
c SOURCE This is a scale-free graph formed for the happy graph colouring problem.
c DESCRIPTION It was generated using the problem generator of Rhyd Lewis
c
c GRAPH STATS
c Seed                             = 488840305
c Number of Nodes                  = 50
c Number of colours k              = 10
c Number of pre-assignments        = 20
c Number of links per new node     = 5
c Density                          = 0.191837
c 
c The degrees of nodes 1 to 50, respectively, are as follows 
c [26, 24, 22, 21, 19, 17, 16, 15, 14, 14, 14, 13, 12, 12, 11, 10, 8, 8, 8, 8, 8, 7, 7, 7, 7, 7, 
c  7, 6, 6, 6, 6, 6, 6, 6, 6, 6, 6, 6, 6, 6, 5, 5, 5, 5, 5, 5, 5, 5, 5, 5] 
c  
p edge 50 235 10
e 1 2
e 1 3
e 1 4
e 1 5
e 1 7
e 1 8
e 1 9
e 1 11
e 1 12
e 1 14
e 1 15
e 1 16
e 1 18
e 1 22
e 1 23
e 1 25
e 1 26
e 1 29
e 1 30
e 1 31
e 1 34
e 1 37
e 1 39
e 1 40
e 1 45
e 1 49
e 2 3
e 2 4
e 2 5
e 2 6
e 2 7
e 2 8
e 2 9
e 2 10
e 2 11
e 2 12
e 2 15
e 2 18
e 2 22
e 2 23
e 2 24
e 2 25
e 2 29
e 2 31
e 2 33
e 2 35
e 2 43
e 2 46
e 2 50
e 3 4
e 3 5
e 3 9
e 3 11
e 3 12
e 3 13
e 3 16
e 3 20
e 3 22
e 3 26
e 3 27
e 3 28
e 3 29
e 3 30
e 3 31
e 3 32
e 3 36
e 3 40
e 3 42
e 3 50
e 4 5
e 4 6
e 4 7
e 4 8
e 4 9
e 4 13
e 4 15
e 4 16
e 4 17
e 4 19
e 4 20
e 4 22
e 4 23
e 4 35
e 4 37
e 4 38
e 4 43
e 4 44
e 5 6
e 5 7
e 5 8
e 5 9
e 5 13
e 5 17
e 5 19
e 5 22
e 5 25
e 5 26
e 5 28
e 5 32
e 5 36
e 5 41
e 5 47
e 6 7
e 6 8
e 6 10
e 6 11
e 6 13
e 6 16
e 6 17
e 6 19
e 6 22
e 6 24
e 6 27
e 6 29
e 6 34
e 6 42
e 7 10
e 7 12
e 7 17
e 7 18
e 7 26
e 7 32
e 7 34
e 7 35
e 7 37
e 7 46
e 7 49
e 8 9
e 8 15
e 8 16
e 8 17
e 8 19
e 8 25
e 8 44
e 8 45
e 8 46
e 8 47
e 9 13
e 9 14
e 9 19
e 9 21
e 9 28
e 9 30
e 9 39
e 9 45
e 10 12
e 10 17
e 10 23
e 10 24
e 10 25
e 10 26
e 10 29
e 10 39
e 10 41
e 10 42
e 10 49
e 11 14
e 11 18
e 11 23
e 11 24
e 11 30
e 11 31
e 11 34
e 11 36
e 11 44
e 11 47
e 12 13
e 12 15
e 12 21
e 12 24
e 12 28
e 12 33
e 12 36
e 12 39
e 13 14
e 13 18
e 13 21
e 13 27
e 13 30
e 13 44
e 14 15
e 14 27
e 14 32
e 14 39
e 14 42
e 14 43
e 14 45
e 14 46
e 15 20
e 15 27
e 15 33
e 15 43
e 15 48
e 16 18
e 16 32
e 16 46
e 16 48
e 16 50
e 17 20
e 17 33
e 18 38
e 18 41
e 19 35
e 19 36
e 19 44
e 20 21
e 20 25
e 20 40
e 20 45
e 21 26
e 21 35
e 21 40
e 21 48
e 22 28
e 23 41
e 23 43
e 24 34
e 24 41
e 25 42
e 26 38
e 27 37
e 27 38
e 28 31
e 29 47
e 30 50
e 31 40
e 32 33
e 33 49
e 34 38
e 35 37
e 36 49
e 37 48
e 38 47
e 39 50
e 40 48
n 6 5
n 9 6
n 15 1
n 17 5
n 21 6
n 22 5
n 25 3
n 31 4
n 32 8
n 36 3
n 37 10
n 38 10
n 41 2
n 43 1
n 44 6
n 45 6
n 46 7
n 47 10
n 49 3
n 50 9
